17086.0
1 0 1 0 0 1 0 1 1 0 0 1 0 1 1 0 0 1 0 0 1 0 0 0 1 1 0 0 0 0 
20 11 20 2 20 5 2 24 28 17 5 8 8 20 17 14 14 17 25 11 2 0 5 17 25 8 2 24 5 24 25 25 13 25 20 20 24 15 0 14 0 14 15 28 24 14 0 13 11 8 5 14 14 5 13 20 17 11 11 14 0 5 20 11 11 11 24 0 25 5 13 13 11 17 24 8 24 20 14 24 20 0 13 17 2 17 17 0 20 5 2 24 17 11 17 24 2 2 25 20 8 17 17 25 2 25 0 11 14 28 14 14 2 11 11 25 24 15 24 5 5 8 25 13 8 0 5 24 0 25 0 11 24 25 8 14 17 5 20 17 0 8 20 14 8 25 25 5 2 5 